p cnf 36 478
test
1 2 3 4 5 6 
7 8 9 10 11 12 
13 14 15 16 17 18 
19 20 21 22 23 24 
25 26 27 28 29 30 
31 32 33 34 35 36 
-1 -7 
-2 -8 
-3 -9 
-4 -10 
-5 -11 
-6 -12 
-1 -13 
-2 -14 
-3 -15 
-4 -16 
-5 -17 
-6 -18 
-1 -19 
-2 -20 
-3 -21 
-4 -22 
-5 -23 
-6 -24 
-1 -25 
-2 -26 
-3 -27 
-4 -28 
-5 -29 
-6 -30 
-1 -31 
-2 -32 
-3 -33 
-4 -34 
-5 -35 
-6 -36 
-7 -1 
-8 -2 
-9 -3 
-10 -4 
-11 -5 
-12 -6 
-7 -13 
-8 -14 
-9 -15 
-10 -16 
-11 -17 
-12 -18 
-7 -19 
-8 -20 
-9 -21 
-10 -22 
-11 -23 
-12 -24 
-7 -25 
-8 -26 
-9 -27 
-10 -28 
-11 -29 
-12 -30 
-7 -31 
-8 -32 
-9 -33 
-10 -34 
-11 -35 
-12 -36 
-13 -1 
-14 -2 
-15 -3 
-16 -4 
-17 -5 
-18 -6 
-13 -7 
-14 -8 
-15 -9 
-16 -10 
-17 -11 
-18 -12 
-13 -19 
-14 -20 
-15 -21 
-16 -22 
-17 -23 
-18 -24 
-13 -25 
-14 -26 
-15 -27 
-16 -28 
-17 -29 
-18 -30 
-13 -31 
-14 -32 
-15 -33 
-16 -34 
-17 -35 
-18 -36 
-19 -1 
-20 -2 
-21 -3 
-22 -4 
-23 -5 
-24 -6 
-19 -7 
-20 -8 
-21 -9 
-22 -10 
-23 -11 
-24 -12 
-19 -13 
-20 -14 
-21 -15 
-22 -16 
-23 -17 
-24 -18 
-19 -25 
-20 -26 
-21 -27 
-22 -28 
-23 -29 
-24 -30 
-19 -31 
-20 -32 
-21 -33 
-22 -34 
-23 -35 
-24 -36 
-25 -1 
-26 -2 
-27 -3 
-28 -4 
-29 -5 
-30 -6 
-25 -7 
-26 -8 
-27 -9 
-28 -10 
-29 -11 
-30 -12 
-25 -13 
-26 -14 
-27 -15 
-28 -16 
-29 -17 
-30 -18 
-25 -19 
-26 -20 
-27 -21 
-28 -22 
-29 -23 
-30 -24 
-25 -31 
-26 -32 
-27 -33 
-28 -34 
-29 -35 
-30 -36 
-31 -1 
-32 -2 
-33 -3 
-34 -4 
-35 -5 
-36 -6 
-31 -7 
-32 -8 
-33 -9 
-34 -10 
-35 -11 
-36 -12 
-31 -13 
-32 -14 
-33 -15 
-34 -16 
-35 -17 
-36 -18 
-31 -19 
-32 -20 
-33 -21 
-34 -22 
-35 -23 
-36 -24 
-31 -25 
-32 -26 
-33 -27 
-34 -28 
-35 -29 
-36 -30 
-1 -2 
-7 -8 
-13 -14 
-19 -20 
-25 -26 
-31 -32 
-1 -3 
-7 -9 
-13 -15 
-19 -21 
-25 -27 
-31 -33 
-1 -4 
-7 -10 
-13 -16 
-19 -22 
-25 -28 
-31 -34 
-1 -5 
-7 -11 
-13 -17 
-19 -23 
-25 -29 
-31 -35 
-1 -6 
-7 -12 
-13 -18 
-19 -24 
-25 -30 
-31 -36 
-2 -1 
-8 -7 
-14 -13 
-20 -19 
-26 -25 
-32 -31 
-2 -3 
-8 -9 
-14 -15 
-20 -21 
-26 -27 
-32 -33 
-2 -4 
-8 -10 
-14 -16 
-20 -22 
-26 -28 
-32 -34 
-2 -5 
-8 -11 
-14 -17 
-20 -23 
-26 -29 
-32 -35 
-2 -6 
-8 -12 
-14 -18 
-20 -24 
-26 -30 
-32 -36 
-3 -1 
-9 -7 
-15 -13 
-21 -19 
-27 -25 
-33 -31 
-3 -2 
-9 -8 
-15 -14 
-21 -20 
-27 -26 
-33 -32 
-3 -4 
-9 -10 
-15 -16 
-21 -22 
-27 -28 
-33 -34 
-3 -5 
-9 -11 
-15 -17 
-21 -23 
-27 -29 
-33 -35 
-3 -6 
-9 -12 
-15 -18 
-21 -24 
-27 -30 
-33 -36 
-4 -1 
-10 -7 
-16 -13 
-22 -19 
-28 -25 
-34 -31 
-4 -2 
-10 -8 
-16 -14 
-22 -20 
-28 -26 
-34 -32 
-4 -3 
-10 -9 
-16 -15 
-22 -21 
-28 -27 
-34 -33 
-4 -5 
-10 -11 
-16 -17 
-22 -23 
-28 -29 
-34 -35 
-4 -6 
-10 -12 
-16 -18 
-22 -24 
-28 -30 
-34 -36 
-5 -1 
-11 -7 
-17 -13 
-23 -19 
-29 -25 
-35 -31 
-5 -2 
-11 -8 
-17 -14 
-23 -20 
-29 -26 
-35 -32 
-5 -3 
-11 -9 
-17 -15 
-23 -21 
-29 -27 
-35 -33 
-5 -4 
-11 -10 
-17 -16 
-23 -22 
-29 -28 
-35 -34 
-5 -6 
-11 -12 
-17 -18 
-23 -24 
-29 -30 
-35 -36 
-6 -1 
-12 -7 
-18 -13 
-24 -19 
-30 -25 
-36 -31 
-6 -2 
-12 -8 
-18 -14 
-24 -20 
-30 -26 
-36 -32 
-6 -3 
-12 -9 
-18 -15 
-24 -21 
-30 -27 
-36 -33 
-6 -4 
-12 -10 
-18 -16 
-24 -22 
-30 -28 
-36 -34 
-6 -5 
-12 -11 
-18 -17 
-24 -23 
-30 -29 
-36 -35 
-1 -9 
-1 -10 
-1 -11 
-2 -10 
-2 -12 
-3 -7 
-3 -11 
-4 -7 
-4 -8 
-4 -12 
-5 -7 
-5 -9 
-6 -8 
-6 -10 
-7 -15 
-7 -16 
-7 -17 
-8 -16 
-8 -18 
-9 -13 
-9 -17 
-10 -13 
-10 -14 
-10 -18 
-11 -13 
-11 -15 
-12 -14 
-12 -16 
-13 -21 
-13 -22 
-13 -23 
-14 -22 
-14 -24 
-15 -19 
-15 -23 
-16 -19 
-16 -20 
-16 -24 
-17 -19 
-17 -21 
-18 -20 
-18 -22 
-19 -27 
-19 -28 
-19 -29 
-20 -28 
-20 -30 
-21 -25 
-21 -29 
-22 -25 
-22 -26 
-22 -30 
-23 -25 
-23 -27 
-24 -26 
-24 -28 
-25 -33 
-25 -34 
-25 -35 
-26 -34 
-26 -36 
-27 -31 
-27 -35 
-28 -31 
-28 -32 
-28 -36 
-29 -31 
-29 -33 
-30 -32 
-30 -34 
-1 -33 
-1 -34 
-1 -35 
-2 -34 
-2 -36 
-3 -31 
-3 -35 
-4 -31 
-4 -32 
-4 -36 
-5 -31 
-5 -33 
-6 -32 
-6 -34 
-7 -27 
-7 -28 
-7 -29 
-8 -28 
-8 -30 
-9 -25 
-9 -29 
-10 -25 
-10 -26 
-10 -30 
-11 -25 
-11 -27 
-12 -26 
-12 -28 
-13 -33 
-13 -34 
-13 -35 
-14 -34 
-14 -36 
-15 -31 
-15 -35 
-16 -31 
-16 -32 
-16 -36 
-17 -31 
-17 -33 
-18 -32 
-18 -34 
